p cnf 756 896
55 56 1 85 86 0
55 56 1 85 -86 0
55 56 1 -85 87 0
55 56 1 -85 -87 0
-55 -56 1 88 89 0
-55 -56 1 88 -89 0
-55 -56 1 -88 90 0
-55 -56 1 -88 -90 0
55 -56 -1 91 92 0
55 -56 -1 91 -92 0
55 -56 -1 -91 93 0
55 -56 -1 -91 -93 0
-55 56 -1 94 95 0
-55 56 -1 94 -95 0
-55 56 -1 -94 96 0
-55 56 -1 -94 -96 0
1 57 2 97 98 0
1 57 2 97 -98 0
1 57 2 -97 99 0
1 57 2 -97 -99 0
-1 -57 2 100 101 0
-1 -57 2 100 -101 0
-1 -57 2 -100 102 0
-1 -57 2 -100 -102 0
1 -57 -2 103 104 0
1 -57 -2 103 -104 0
1 -57 -2 -103 105 0
1 -57 -2 -103 -105 0
-1 57 -2 106 107 0
-1 57 -2 106 -107 0
-1 57 -2 -106 108 0
-1 57 -2 -106 -108 0
2 58 3 109 110 0
2 58 3 109 -110 0
2 58 3 -109 111 0
2 58 3 -109 -111 0
-2 -58 3 112 113 0
-2 -58 3 112 -113 0
-2 -58 3 -112 114 0
-2 -58 3 -112 -114 0
2 -58 -3 115 116 0
2 -58 -3 115 -116 0
2 -58 -3 -115 117 0
2 -58 -3 -115 -117 0
-2 58 -3 118 119 0
-2 58 -3 118 -119 0
-2 58 -3 -118 120 0
-2 58 -3 -118 -120 0
3 59 4 121 122 0
3 59 4 121 -122 0
3 59 4 -121 123 0
3 59 4 -121 -123 0
-3 -59 4 124 125 0
-3 -59 4 124 -125 0
-3 -59 4 -124 126 0
-3 -59 4 -124 -126 0
3 -59 -4 127 128 0
3 -59 -4 127 -128 0
3 -59 -4 -127 129 0
3 -59 -4 -127 -129 0
-3 59 -4 130 131 0
-3 59 -4 130 -131 0
-3 59 -4 -130 132 0
-3 59 -4 -130 -132 0
4 60 5 133 134 0
4 60 5 133 -134 0
4 60 5 -133 135 0
4 60 5 -133 -135 0
-4 -60 5 136 137 0
-4 -60 5 136 -137 0
-4 -60 5 -136 138 0
-4 -60 5 -136 -138 0
4 -60 -5 139 140 0
4 -60 -5 139 -140 0
4 -60 -5 -139 141 0
4 -60 -5 -139 -141 0
-4 60 -5 142 143 0
-4 60 -5 142 -143 0
-4 60 -5 -142 144 0
-4 60 -5 -142 -144 0
5 61 6 145 146 0
5 61 6 145 -146 0
5 61 6 -145 147 0
5 61 6 -145 -147 0
-5 -61 6 148 149 0
-5 -61 6 148 -149 0
-5 -61 6 -148 150 0
-5 -61 6 -148 -150 0
5 -61 -6 151 152 0
5 -61 -6 151 -152 0
5 -61 -6 -151 153 0
5 -61 -6 -151 -153 0
-5 61 -6 154 155 0
-5 61 -6 154 -155 0
-5 61 -6 -154 156 0
-5 61 -6 -154 -156 0
6 62 7 157 158 0
6 62 7 157 -158 0
6 62 7 -157 159 0
6 62 7 -157 -159 0
-6 -62 7 160 161 0
-6 -62 7 160 -161 0
-6 -62 7 -160 162 0
-6 -62 7 -160 -162 0
6 -62 -7 163 164 0
6 -62 -7 163 -164 0
6 -62 -7 -163 165 0
6 -62 -7 -163 -165 0
-6 62 -7 166 167 0
-6 62 -7 166 -167 0
-6 62 -7 -166 168 0
-6 62 -7 -166 -168 0
7 63 8 169 170 0
7 63 8 169 -170 0
7 63 8 -169 171 0
7 63 8 -169 -171 0
-7 -63 8 172 173 0
-7 -63 8 172 -173 0
-7 -63 8 -172 174 0
-7 -63 8 -172 -174 0
7 -63 -8 175 176 0
7 -63 -8 175 -176 0
7 -63 -8 -175 177 0
7 -63 -8 -175 -177 0
-7 63 -8 178 179 0
-7 63 -8 178 -179 0
-7 63 -8 -178 180 0
-7 63 -8 -178 -180 0
8 64 9 181 182 0
8 64 9 181 -182 0
8 64 9 -181 183 0
8 64 9 -181 -183 0
-8 -64 9 184 185 0
-8 -64 9 184 -185 0
-8 -64 9 -184 186 0
-8 -64 9 -184 -186 0
8 -64 -9 187 188 0
8 -64 -9 187 -188 0
8 -64 -9 -187 189 0
8 -64 -9 -187 -189 0
-8 64 -9 190 191 0
-8 64 -9 190 -191 0
-8 64 -9 -190 192 0
-8 64 -9 -190 -192 0
9 65 10 193 194 0
9 65 10 193 -194 0
9 65 10 -193 195 0
9 65 10 -193 -195 0
-9 -65 10 196 197 0
-9 -65 10 196 -197 0
-9 -65 10 -196 198 0
-9 -65 10 -196 -198 0
9 -65 -10 199 200 0
9 -65 -10 199 -200 0
9 -65 -10 -199 201 0
9 -65 -10 -199 -201 0
-9 65 -10 202 203 0
-9 65 -10 202 -203 0
-9 65 -10 -202 204 0
-9 65 -10 -202 -204 0
10 66 11 205 206 0
10 66 11 205 -206 0
10 66 11 -205 207 0
10 66 11 -205 -207 0
-10 -66 11 208 209 0
-10 -66 11 208 -209 0
-10 -66 11 -208 210 0
-10 -66 11 -208 -210 0
10 -66 -11 211 212 0
10 -66 -11 211 -212 0
10 -66 -11 -211 213 0
10 -66 -11 -211 -213 0
-10 66 -11 214 215 0
-10 66 -11 214 -215 0
-10 66 -11 -214 216 0
-10 66 -11 -214 -216 0
11 67 12 217 218 0
11 67 12 217 -218 0
11 67 12 -217 219 0
11 67 12 -217 -219 0
-11 -67 12 220 221 0
-11 -67 12 220 -221 0
-11 -67 12 -220 222 0
-11 -67 12 -220 -222 0
11 -67 -12 223 224 0
11 -67 -12 223 -224 0
11 -67 -12 -223 225 0
11 -67 -12 -223 -225 0
-11 67 -12 226 227 0
-11 67 -12 226 -227 0
-11 67 -12 -226 228 0
-11 67 -12 -226 -228 0
12 68 13 229 230 0
12 68 13 229 -230 0
12 68 13 -229 231 0
12 68 13 -229 -231 0
-12 -68 13 232 233 0
-12 -68 13 232 -233 0
-12 -68 13 -232 234 0
-12 -68 13 -232 -234 0
12 -68 -13 235 236 0
12 -68 -13 235 -236 0
12 -68 -13 -235 237 0
12 -68 -13 -235 -237 0
-12 68 -13 238 239 0
-12 68 -13 238 -239 0
-12 68 -13 -238 240 0
-12 68 -13 -238 -240 0
13 69 14 241 242 0
13 69 14 241 -242 0
13 69 14 -241 243 0
13 69 14 -241 -243 0
-13 -69 14 244 245 0
-13 -69 14 244 -245 0
-13 -69 14 -244 246 0
-13 -69 14 -244 -246 0
13 -69 -14 247 248 0
13 -69 -14 247 -248 0
13 -69 -14 -247 249 0
13 -69 -14 -247 -249 0
-13 69 -14 250 251 0
-13 69 -14 250 -251 0
-13 69 -14 -250 252 0
-13 69 -14 -250 -252 0
14 70 15 253 254 0
14 70 15 253 -254 0
14 70 15 -253 255 0
14 70 15 -253 -255 0
-14 -70 15 256 257 0
-14 -70 15 256 -257 0
-14 -70 15 -256 258 0
-14 -70 15 -256 -258 0
14 -70 -15 259 260 0
14 -70 -15 259 -260 0
14 -70 -15 -259 261 0
14 -70 -15 -259 -261 0
-14 70 -15 262 263 0
-14 70 -15 262 -263 0
-14 70 -15 -262 264 0
-14 70 -15 -262 -264 0
15 71 16 265 266 0
15 71 16 265 -266 0
15 71 16 -265 267 0
15 71 16 -265 -267 0
-15 -71 16 268 269 0
-15 -71 16 268 -269 0
-15 -71 16 -268 270 0
-15 -71 16 -268 -270 0
15 -71 -16 271 272 0
15 -71 -16 271 -272 0
15 -71 -16 -271 273 0
15 -71 -16 -271 -273 0
-15 71 -16 274 275 0
-15 71 -16 274 -275 0
-15 71 -16 -274 276 0
-15 71 -16 -274 -276 0
16 72 17 277 278 0
16 72 17 277 -278 0
16 72 17 -277 279 0
16 72 17 -277 -279 0
-16 -72 17 280 281 0
-16 -72 17 280 -281 0
-16 -72 17 -280 282 0
-16 -72 17 -280 -282 0
16 -72 -17 283 284 0
16 -72 -17 283 -284 0
16 -72 -17 -283 285 0
16 -72 -17 -283 -285 0
-16 72 -17 286 287 0
-16 72 -17 286 -287 0
-16 72 -17 -286 288 0
-16 72 -17 -286 -288 0
17 73 18 289 290 0
17 73 18 289 -290 0
17 73 18 -289 291 0
17 73 18 -289 -291 0
-17 -73 18 292 293 0
-17 -73 18 292 -293 0
-17 -73 18 -292 294 0
-17 -73 18 -292 -294 0
17 -73 -18 295 296 0
17 -73 -18 295 -296 0
17 -73 -18 -295 297 0
17 -73 -18 -295 -297 0
-17 73 -18 298 299 0
-17 73 -18 298 -299 0
-17 73 -18 -298 300 0
-17 73 -18 -298 -300 0
18 74 19 301 302 0
18 74 19 301 -302 0
18 74 19 -301 303 0
18 74 19 -301 -303 0
-18 -74 19 304 305 0
-18 -74 19 304 -305 0
-18 -74 19 -304 306 0
-18 -74 19 -304 -306 0
18 -74 -19 307 308 0
18 -74 -19 307 -308 0
18 -74 -19 -307 309 0
18 -74 -19 -307 -309 0
-18 74 -19 310 311 0
-18 74 -19 310 -311 0
-18 74 -19 -310 312 0
-18 74 -19 -310 -312 0
19 75 20 313 314 0
19 75 20 313 -314 0
19 75 20 -313 315 0
19 75 20 -313 -315 0
-19 -75 20 316 317 0
-19 -75 20 316 -317 0
-19 -75 20 -316 318 0
-19 -75 20 -316 -318 0
19 -75 -20 319 320 0
19 -75 -20 319 -320 0
19 -75 -20 -319 321 0
19 -75 -20 -319 -321 0
-19 75 -20 322 323 0
-19 75 -20 322 -323 0
-19 75 -20 -322 324 0
-19 75 -20 -322 -324 0
20 76 21 325 326 0
20 76 21 325 -326 0
20 76 21 -325 327 0
20 76 21 -325 -327 0
-20 -76 21 328 329 0
-20 -76 21 328 -329 0
-20 -76 21 -328 330 0
-20 -76 21 -328 -330 0
20 -76 -21 331 332 0
20 -76 -21 331 -332 0
20 -76 -21 -331 333 0
20 -76 -21 -331 -333 0
-20 76 -21 334 335 0
-20 76 -21 334 -335 0
-20 76 -21 -334 336 0
-20 76 -21 -334 -336 0
21 77 22 337 338 0
21 77 22 337 -338 0
21 77 22 -337 339 0
21 77 22 -337 -339 0
-21 -77 22 340 341 0
-21 -77 22 340 -341 0
-21 -77 22 -340 342 0
-21 -77 22 -340 -342 0
21 -77 -22 343 344 0
21 -77 -22 343 -344 0
21 -77 -22 -343 345 0
21 -77 -22 -343 -345 0
-21 77 -22 346 347 0
-21 77 -22 346 -347 0
-21 77 -22 -346 348 0
-21 77 -22 -346 -348 0
22 78 23 349 350 0
22 78 23 349 -350 0
22 78 23 -349 351 0
22 78 23 -349 -351 0
-22 -78 23 352 353 0
-22 -78 23 352 -353 0
-22 -78 23 -352 354 0
-22 -78 23 -352 -354 0
22 -78 -23 355 356 0
22 -78 -23 355 -356 0
22 -78 -23 -355 357 0
22 -78 -23 -355 -357 0
-22 78 -23 358 359 0
-22 78 -23 358 -359 0
-22 78 -23 -358 360 0
-22 78 -23 -358 -360 0
23 79 24 361 362 0
23 79 24 361 -362 0
23 79 24 -361 363 0
23 79 24 -361 -363 0
-23 -79 24 364 365 0
-23 -79 24 364 -365 0
-23 -79 24 -364 366 0
-23 -79 24 -364 -366 0
23 -79 -24 367 368 0
23 -79 -24 367 -368 0
23 -79 -24 -367 369 0
23 -79 -24 -367 -369 0
-23 79 -24 370 371 0
-23 79 -24 370 -371 0
-23 79 -24 -370 372 0
-23 79 -24 -370 -372 0
24 80 25 373 374 0
24 80 25 373 -374 0
24 80 25 -373 375 0
24 80 25 -373 -375 0
-24 -80 25 376 377 0
-24 -80 25 376 -377 0
-24 -80 25 -376 378 0
-24 -80 25 -376 -378 0
24 -80 -25 379 380 0
24 -80 -25 379 -380 0
24 -80 -25 -379 381 0
24 -80 -25 -379 -381 0
-24 80 -25 382 383 0
-24 80 -25 382 -383 0
-24 80 -25 -382 384 0
-24 80 -25 -382 -384 0
25 81 26 385 386 0
25 81 26 385 -386 0
25 81 26 -385 387 0
25 81 26 -385 -387 0
-25 -81 26 388 389 0
-25 -81 26 388 -389 0
-25 -81 26 -388 390 0
-25 -81 26 -388 -390 0
25 -81 -26 391 392 0
25 -81 -26 391 -392 0
25 -81 -26 -391 393 0
25 -81 -26 -391 -393 0
-25 81 -26 394 395 0
-25 81 -26 394 -395 0
-25 81 -26 -394 396 0
-25 81 -26 -394 -396 0
26 82 27 397 398 0
26 82 27 397 -398 0
26 82 27 -397 399 0
26 82 27 -397 -399 0
-26 -82 27 400 401 0
-26 -82 27 400 -401 0
-26 -82 27 -400 402 0
-26 -82 27 -400 -402 0
26 -82 -27 403 404 0
26 -82 -27 403 -404 0
26 -82 -27 -403 405 0
26 -82 -27 -403 -405 0
-26 82 -27 406 407 0
-26 82 -27 406 -407 0
-26 82 -27 -406 408 0
-26 82 -27 -406 -408 0
27 83 84 409 410 0
27 83 84 409 -410 0
27 83 84 -409 411 0
27 83 84 -409 -411 0
-27 -83 84 412 413 0
-27 -83 84 412 -413 0
-27 -83 84 -412 414 0
-27 -83 84 -412 -414 0
27 -83 -84 415 416 0
27 -83 -84 415 -416 0
27 -83 -84 -415 417 0
27 -83 -84 -415 -417 0
-27 83 -84 418 419 0
-27 83 -84 418 -419 0
-27 83 -84 -418 420 0
-27 83 -84 -418 -420 0
28 83 84 421 422 0
28 83 84 421 -422 0
28 83 84 -421 423 0
28 83 84 -421 -423 0
-28 -83 84 424 425 0
-28 -83 84 424 -425 0
-28 -83 84 -424 426 0
-28 -83 84 -424 -426 0
28 -83 -84 427 428 0
28 -83 -84 427 -428 0
28 -83 -84 -427 429 0
28 -83 -84 -427 -429 0
-28 83 -84 430 431 0
-28 83 -84 430 -431 0
-28 83 -84 -430 432 0
-28 83 -84 -430 -432 0
29 82 28 433 434 0
29 82 28 433 -434 0
29 82 28 -433 435 0
29 82 28 -433 -435 0
-29 -82 28 436 437 0
-29 -82 28 436 -437 0
-29 -82 28 -436 438 0
-29 -82 28 -436 -438 0
29 -82 -28 439 440 0
29 -82 -28 439 -440 0
29 -82 -28 -439 441 0
29 -82 -28 -439 -441 0
-29 82 -28 442 443 0
-29 82 -28 442 -443 0
-29 82 -28 -442 444 0
-29 82 -28 -442 -444 0
30 81 29 445 446 0
30 81 29 445 -446 0
30 81 29 -445 447 0
30 81 29 -445 -447 0
-30 -81 29 448 449 0
-30 -81 29 448 -449 0
-30 -81 29 -448 450 0
-30 -81 29 -448 -450 0
30 -81 -29 451 452 0
30 -81 -29 451 -452 0
30 -81 -29 -451 453 0
30 -81 -29 -451 -453 0
-30 81 -29 454 455 0
-30 81 -29 454 -455 0
-30 81 -29 -454 456 0
-30 81 -29 -454 -456 0
31 80 30 457 458 0
31 80 30 457 -458 0
31 80 30 -457 459 0
31 80 30 -457 -459 0
-31 -80 30 460 461 0
-31 -80 30 460 -461 0
-31 -80 30 -460 462 0
-31 -80 30 -460 -462 0
31 -80 -30 463 464 0
31 -80 -30 463 -464 0
31 -80 -30 -463 465 0
31 -80 -30 -463 -465 0
-31 80 -30 466 467 0
-31 80 -30 466 -467 0
-31 80 -30 -466 468 0
-31 80 -30 -466 -468 0
32 79 31 469 470 0
32 79 31 469 -470 0
32 79 31 -469 471 0
32 79 31 -469 -471 0
-32 -79 31 472 473 0
-32 -79 31 472 -473 0
-32 -79 31 -472 474 0
-32 -79 31 -472 -474 0
32 -79 -31 475 476 0
32 -79 -31 475 -476 0
32 -79 -31 -475 477 0
32 -79 -31 -475 -477 0
-32 79 -31 478 479 0
-32 79 -31 478 -479 0
-32 79 -31 -478 480 0
-32 79 -31 -478 -480 0
33 78 32 481 482 0
33 78 32 481 -482 0
33 78 32 -481 483 0
33 78 32 -481 -483 0
-33 -78 32 484 485 0
-33 -78 32 484 -485 0
-33 -78 32 -484 486 0
-33 -78 32 -484 -486 0
33 -78 -32 487 488 0
33 -78 -32 487 -488 0
33 -78 -32 -487 489 0
33 -78 -32 -487 -489 0
-33 78 -32 490 491 0
-33 78 -32 490 -491 0
-33 78 -32 -490 492 0
-33 78 -32 -490 -492 0
34 77 33 493 494 0
34 77 33 493 -494 0
34 77 33 -493 495 0
34 77 33 -493 -495 0
-34 -77 33 496 497 0
-34 -77 33 496 -497 0
-34 -77 33 -496 498 0
-34 -77 33 -496 -498 0
34 -77 -33 499 500 0
34 -77 -33 499 -500 0
34 -77 -33 -499 501 0
34 -77 -33 -499 -501 0
-34 77 -33 502 503 0
-34 77 -33 502 -503 0
-34 77 -33 -502 504 0
-34 77 -33 -502 -504 0
35 76 34 505 506 0
35 76 34 505 -506 0
35 76 34 -505 507 0
35 76 34 -505 -507 0
-35 -76 34 508 509 0
-35 -76 34 508 -509 0
-35 -76 34 -508 510 0
-35 -76 34 -508 -510 0
35 -76 -34 511 512 0
35 -76 -34 511 -512 0
35 -76 -34 -511 513 0
35 -76 -34 -511 -513 0
-35 76 -34 514 515 0
-35 76 -34 514 -515 0
-35 76 -34 -514 516 0
-35 76 -34 -514 -516 0
36 75 35 517 518 0
36 75 35 517 -518 0
36 75 35 -517 519 0
36 75 35 -517 -519 0
-36 -75 35 520 521 0
-36 -75 35 520 -521 0
-36 -75 35 -520 522 0
-36 -75 35 -520 -522 0
36 -75 -35 523 524 0
36 -75 -35 523 -524 0
36 -75 -35 -523 525 0
36 -75 -35 -523 -525 0
-36 75 -35 526 527 0
-36 75 -35 526 -527 0
-36 75 -35 -526 528 0
-36 75 -35 -526 -528 0
37 74 36 529 530 0
37 74 36 529 -530 0
37 74 36 -529 531 0
37 74 36 -529 -531 0
-37 -74 36 532 533 0
-37 -74 36 532 -533 0
-37 -74 36 -532 534 0
-37 -74 36 -532 -534 0
37 -74 -36 535 536 0
37 -74 -36 535 -536 0
37 -74 -36 -535 537 0
37 -74 -36 -535 -537 0
-37 74 -36 538 539 0
-37 74 -36 538 -539 0
-37 74 -36 -538 540 0
-37 74 -36 -538 -540 0
38 73 37 541 542 0
38 73 37 541 -542 0
38 73 37 -541 543 0
38 73 37 -541 -543 0
-38 -73 37 544 545 0
-38 -73 37 544 -545 0
-38 -73 37 -544 546 0
-38 -73 37 -544 -546 0
38 -73 -37 547 548 0
38 -73 -37 547 -548 0
38 -73 -37 -547 549 0
38 -73 -37 -547 -549 0
-38 73 -37 550 551 0
-38 73 -37 550 -551 0
-38 73 -37 -550 552 0
-38 73 -37 -550 -552 0
39 72 38 553 554 0
39 72 38 553 -554 0
39 72 38 -553 555 0
39 72 38 -553 -555 0
-39 -72 38 556 557 0
-39 -72 38 556 -557 0
-39 -72 38 -556 558 0
-39 -72 38 -556 -558 0
39 -72 -38 559 560 0
39 -72 -38 559 -560 0
39 -72 -38 -559 561 0
39 -72 -38 -559 -561 0
-39 72 -38 562 563 0
-39 72 -38 562 -563 0
-39 72 -38 -562 564 0
-39 72 -38 -562 -564 0
40 71 39 565 566 0
40 71 39 565 -566 0
40 71 39 -565 567 0
40 71 39 -565 -567 0
-40 -71 39 568 569 0
-40 -71 39 568 -569 0
-40 -71 39 -568 570 0
-40 -71 39 -568 -570 0
40 -71 -39 571 572 0
40 -71 -39 571 -572 0
40 -71 -39 -571 573 0
40 -71 -39 -571 -573 0
-40 71 -39 574 575 0
-40 71 -39 574 -575 0
-40 71 -39 -574 576 0
-40 71 -39 -574 -576 0
41 70 40 577 578 0
41 70 40 577 -578 0
41 70 40 -577 579 0
41 70 40 -577 -579 0
-41 -70 40 580 581 0
-41 -70 40 580 -581 0
-41 -70 40 -580 582 0
-41 -70 40 -580 -582 0
41 -70 -40 583 584 0
41 -70 -40 583 -584 0
41 -70 -40 -583 585 0
41 -70 -40 -583 -585 0
-41 70 -40 586 587 0
-41 70 -40 586 -587 0
-41 70 -40 -586 588 0
-41 70 -40 -586 -588 0
42 69 41 589 590 0
42 69 41 589 -590 0
42 69 41 -589 591 0
42 69 41 -589 -591 0
-42 -69 41 592 593 0
-42 -69 41 592 -593 0
-42 -69 41 -592 594 0
-42 -69 41 -592 -594 0
42 -69 -41 595 596 0
42 -69 -41 595 -596 0
42 -69 -41 -595 597 0
42 -69 -41 -595 -597 0
-42 69 -41 598 599 0
-42 69 -41 598 -599 0
-42 69 -41 -598 600 0
-42 69 -41 -598 -600 0
43 68 42 601 602 0
43 68 42 601 -602 0
43 68 42 -601 603 0
43 68 42 -601 -603 0
-43 -68 42 604 605 0
-43 -68 42 604 -605 0
-43 -68 42 -604 606 0
-43 -68 42 -604 -606 0
43 -68 -42 607 608 0
43 -68 -42 607 -608 0
43 -68 -42 -607 609 0
43 -68 -42 -607 -609 0
-43 68 -42 610 611 0
-43 68 -42 610 -611 0
-43 68 -42 -610 612 0
-43 68 -42 -610 -612 0
44 67 43 613 614 0
44 67 43 613 -614 0
44 67 43 -613 615 0
44 67 43 -613 -615 0
-44 -67 43 616 617 0
-44 -67 43 616 -617 0
-44 -67 43 -616 618 0
-44 -67 43 -616 -618 0
44 -67 -43 619 620 0
44 -67 -43 619 -620 0
44 -67 -43 -619 621 0
44 -67 -43 -619 -621 0
-44 67 -43 622 623 0
-44 67 -43 622 -623 0
-44 67 -43 -622 624 0
-44 67 -43 -622 -624 0
45 66 44 625 626 0
45 66 44 625 -626 0
45 66 44 -625 627 0
45 66 44 -625 -627 0
-45 -66 44 628 629 0
-45 -66 44 628 -629 0
-45 -66 44 -628 630 0
-45 -66 44 -628 -630 0
45 -66 -44 631 632 0
45 -66 -44 631 -632 0
45 -66 -44 -631 633 0
45 -66 -44 -631 -633 0
-45 66 -44 634 635 0
-45 66 -44 634 -635 0
-45 66 -44 -634 636 0
-45 66 -44 -634 -636 0
46 65 45 637 638 0
46 65 45 637 -638 0
46 65 45 -637 639 0
46 65 45 -637 -639 0
-46 -65 45 640 641 0
-46 -65 45 640 -641 0
-46 -65 45 -640 642 0
-46 -65 45 -640 -642 0
46 -65 -45 643 644 0
46 -65 -45 643 -644 0
46 -65 -45 -643 645 0
46 -65 -45 -643 -645 0
-46 65 -45 646 647 0
-46 65 -45 646 -647 0
-46 65 -45 -646 648 0
-46 65 -45 -646 -648 0
47 64 46 649 650 0
47 64 46 649 -650 0
47 64 46 -649 651 0
47 64 46 -649 -651 0
-47 -64 46 652 653 0
-47 -64 46 652 -653 0
-47 -64 46 -652 654 0
-47 -64 46 -652 -654 0
47 -64 -46 655 656 0
47 -64 -46 655 -656 0
47 -64 -46 -655 657 0
47 -64 -46 -655 -657 0
-47 64 -46 658 659 0
-47 64 -46 658 -659 0
-47 64 -46 -658 660 0
-47 64 -46 -658 -660 0
48 63 47 661 662 0
48 63 47 661 -662 0
48 63 47 -661 663 0
48 63 47 -661 -663 0
-48 -63 47 664 665 0
-48 -63 47 664 -665 0
-48 -63 47 -664 666 0
-48 -63 47 -664 -666 0
48 -63 -47 667 668 0
48 -63 -47 667 -668 0
48 -63 -47 -667 669 0
48 -63 -47 -667 -669 0
-48 63 -47 670 671 0
-48 63 -47 670 -671 0
-48 63 -47 -670 672 0
-48 63 -47 -670 -672 0
49 62 48 673 674 0
49 62 48 673 -674 0
49 62 48 -673 675 0
49 62 48 -673 -675 0
-49 -62 48 676 677 0
-49 -62 48 676 -677 0
-49 -62 48 -676 678 0
-49 -62 48 -676 -678 0
49 -62 -48 679 680 0
49 -62 -48 679 -680 0
49 -62 -48 -679 681 0
49 -62 -48 -679 -681 0
-49 62 -48 682 683 0
-49 62 -48 682 -683 0
-49 62 -48 -682 684 0
-49 62 -48 -682 -684 0
50 61 49 685 686 0
50 61 49 685 -686 0
50 61 49 -685 687 0
50 61 49 -685 -687 0
-50 -61 49 688 689 0
-50 -61 49 688 -689 0
-50 -61 49 -688 690 0
-50 -61 49 -688 -690 0
50 -61 -49 691 692 0
50 -61 -49 691 -692 0
50 -61 -49 -691 693 0
50 -61 -49 -691 -693 0
-50 61 -49 694 695 0
-50 61 -49 694 -695 0
-50 61 -49 -694 696 0
-50 61 -49 -694 -696 0
51 60 50 697 698 0
51 60 50 697 -698 0
51 60 50 -697 699 0
51 60 50 -697 -699 0
-51 -60 50 700 701 0
-51 -60 50 700 -701 0
-51 -60 50 -700 702 0
-51 -60 50 -700 -702 0
51 -60 -50 703 704 0
51 -60 -50 703 -704 0
51 -60 -50 -703 705 0
51 -60 -50 -703 -705 0
-51 60 -50 706 707 0
-51 60 -50 706 -707 0
-51 60 -50 -706 708 0
-51 60 -50 -706 -708 0
52 59 51 709 710 0
52 59 51 709 -710 0
52 59 51 -709 711 0
52 59 51 -709 -711 0
-52 -59 51 712 713 0
-52 -59 51 712 -713 0
-52 -59 51 -712 714 0
-52 -59 51 -712 -714 0
52 -59 -51 715 716 0
52 -59 -51 715 -716 0
52 -59 -51 -715 717 0
52 -59 -51 -715 -717 0
-52 59 -51 718 719 0
-52 59 -51 718 -719 0
-52 59 -51 -718 720 0
-52 59 -51 -718 -720 0
53 58 52 721 722 0
53 58 52 721 -722 0
53 58 52 -721 723 0
53 58 52 -721 -723 0
-53 -58 52 724 725 0
-53 -58 52 724 -725 0
-53 -58 52 -724 726 0
-53 -58 52 -724 -726 0
53 -58 -52 727 728 0
53 -58 -52 727 -728 0
53 -58 -52 -727 729 0
53 -58 -52 -727 -729 0
-53 58 -52 730 731 0
-53 58 -52 730 -731 0
-53 58 -52 -730 732 0
-53 58 -52 -730 -732 0
54 57 53 733 734 0
54 57 53 733 -734 0
54 57 53 -733 735 0
54 57 53 -733 -735 0
-54 -57 53 736 737 0
-54 -57 53 736 -737 0
-54 -57 53 -736 738 0
-54 -57 53 -736 -738 0
54 -57 -53 739 740 0
54 -57 -53 739 -740 0
54 -57 -53 -739 741 0
54 -57 -53 -739 -741 0
-54 57 -53 742 743 0
-54 57 -53 742 -743 0
-54 57 -53 -742 744 0
-54 57 -53 -742 -744 0
55 56 -54 745 746 0
55 56 -54 745 -746 0
55 56 -54 -745 747 0
55 56 -54 -745 -747 0
-55 -56 -54 748 749 0
-55 -56 -54 748 -749 0
-55 -56 -54 -748 750 0
-55 -56 -54 -748 -750 0
55 -56 54 751 752 0
55 -56 54 751 -752 0
55 -56 54 -751 753 0
55 -56 54 -751 -753 0
-55 56 54 754 755 0
-55 56 54 754 -755 0
-55 56 54 -754 756 0
-55 56 54 -754 -756 0

